************************************************************************
file with basedata            : mm62_.bas
initial value random generator: 1984231185
************************************************************************
projects                      :  1
jobs (incl. supersource/sink ):  12
horizon                       :  81
RESOURCES
  - renewable                 :  2   R
  - nonrenewable              :  2   N
  - doubly constrained        :  0   D
************************************************************************
PROJECT INFORMATION:
pronr.  #jobs rel.date duedate tardcost  MPM-Time
    1     10      0       14        8       14
************************************************************************
PRECEDENCE RELATIONS:
jobnr.    #modes  #successors   successors
   1        1          3           2   3   4
   2        3          1           9
   3        3          2           5   8
   4        3          3           6   7   9
   5        3          1          10
   6        3          1          11
   7        3          2          10  11
   8        3          2           9  10
   9        3          1          12
  10        3          1          12
  11        3          1          12
  12        1          0        
************************************************************************
REQUESTS/DURATIONS:
jobnr. mode duration  R 1  R 2  N 1  N 2
------------------------------------------------------------------------
  1      1     0       0    0    0    0
  2      1     4       8    4    4    8
         2     6       7    4    4    8
         3     7       6    2    3    7
  3      1     5       6    9   10    7
         2     5       9    8   10    8
         3     9       4    8    7    3
  4      1     2       5    6    5    5
         2     4       3    5    5    4
         3     7       3    3    2    3
  5      1     2       4    3    4    7
         2     9       2    3    4    1
         3     9       3    2    3    2
  6      1     6       8   10    8    9
         2     8       7   10    7    8
         3     9       3   10    3    8
  7      1     2       8    8    8    9
         2     5       8    7    8    9
         3     9       6    6    6    9
  8      1     3       9    6    7    3
         2     5       7    4    7    2
         3     7       6    1    7    2
  9      1     3       6    8    6    5
         2     5       6    5    3    4
         3     9       2    5    1    4
 10      1     6       6    5    6    6
         2     8       5    4    3    6
         3     8       5    4    4    5
 11      1     2       4   10    8    7
         2     7       3    8    8    5
         3     7       4    7    8    6
 12      1     0       0    0    0    0
************************************************************************
RESOURCEAVAILABILITIES:
  R 1  R 2  N 1  N 2
   33   31   55   57
************************************************************************
MAXIMAL LAGS:
from  to  type  delay
    1   12   ES      0
    1    2   ES      0
    2   12   ES      0
    1    3   ES      0
    3   12   ES      0
    1    4   ES      0
    4   12   ES      0
    1    5   ES      0
    5   12   ES      0
    1    6   ES      0
    6   12   ES      0
    1    7   ES      0
    7   12   ES      0
    1    8   ES      0
    8   12   ES      0
    1    9   ES      0
    9   12   ES      0
    1   10   ES      0
   10   12   ES      0
    1   11   ES      0
   11   12   ES      0
    1   12   ES      0
    2    9   SS      5
    2    9   SE     -4
    2    9   ES    -10
    2    9   EE     -6
    3    5   SS     -6
    3    5   SE     -6
    3    5   ES      2
    3    5   EE     -5
    3    8   SS    -10
    3    8   SE     -8
    3    8   ES     -2
    3    8   EE     -1
    4    6   SS     10
    4    6   SE     -7
    4    6   ES     -6
    4    6   EE     -1
    4    7   SS      0
    4    7   SE     -9
    4    7   ES      2
    4    7   EE      5
    4    9   SS    -10
    4    9   SE      2
    4    9   ES    -12
    4    9   EE     -6
    5   10   SS     -7
    5   10   SE      9
    5   10   ES     -9
    5   10   EE    -10
    6   11   SS      7
    6   11   SE     -7
    6   11   ES    -12
    6   11   EE      0
    7   10   SS     -9
    7   10   SE     -5
    7   10   ES     12
    7   10   EE      1
    7   11   SS     -5
    7   11   SE      4
    7   11   ES      9
    7   11   EE     -2
    8    9   SS     -8
    8    9   SE      2
    8    9   ES      3
    8    9   EE      5
    8   10   SS      6
    8   10   SE     -1
   10    8   SE      0
    8   10   ES      0
    8   10   EE     -9
************************************************************************
